Problem:    
Rows:       203
Columns:    85 (70 integer, 70 binary)
Non-zeros:  690
Status:     INTEGER OPTIMAL
Objective:  value = 156.250613 (MINimum)

   No.   Row name        Activity     Lower bound   Upper bound
------ ------------    ------------- ------------- -------------
     1 r.5                   156.251             0               
     2 r.6                         0      -953.572               
     3 r.7                   1156.25             0               
     4 r.8                  -948.593      -962.279               
     5 r.9                   1156.25             0               
     6 r.10                 -931.058      -953.335               
     7 r.11                  156.251             0               
     8 r.12                 -784.084      -962.082               
     9 r.13                  156.251             0               
    10 r.14                 -46.4276      -998.928               
    11 r.15                  1156.25             0               
    12 r.16                 -986.314      -995.348               
    13 r.17                  156.251             0               
    14 r.18                 -841.835      -998.086               
    15 r.19                  1156.25             0               
    16 r.20                 -941.295      -992.702               
    17 r.21                  1156.25             0               
    18 r.22                 -977.722      -977.722               
    19 r.23                  156.251             0               
    20 r.24                 -825.001      -981.252               
    21 r.25                  156.251             0               
    22 r.26                        0      -955.138               
    23 r.27                  1156.25             0               
    24 r.28                 -843.749      -968.164               
    25 r.29                  1156.25             0               
    26 r.30                 -843.749      -935.635               
    27 r.31                  156.251             0               
    28 r.32                  124.415      -957.729               
    29 r.33                        1             1             = 
    30 r.34                        1             1             = 
    31 r.35                        1             1             = 
    32 r.36                        1             1             = 
    33 r.37                        1             1             = 
    34 r.38                        1             1             = 
    35 r.39                        1             1             = 
    36 r.40                  68.9424       46.6647               
    37 r.41                 -70.4424      -953.572               
    38 r.42                   164.51       37.9176               
    39 r.43                  -161.51      -962.279               
    40 r.44                  953.572        1.0722               
    41 r.45                 -953.572      -953.572               
    42 r.46                  962.279       4.65193               
    43 r.47                 -962.279      -962.279               
    44 r.48                  158.165       1.91447               
    45 r.49                 -158.165      -953.572               
    46 r.50                  7.29816       7.29816               
    47 r.51                 -7.29816      -962.279               
    48 r.52                  22.2777       22.2777               
    49 r.53                 -22.2777      -953.572               
    50 r.54                  123.592       18.7481               
    51 r.55                 -123.592      -962.279               
    52 r.56                        0      -928.152               
    53 r.57                 -843.749      -914.192               
    54 r.58                 -51.4067      -928.152               
    55 r.59                 -895.156      -914.192               
    56 r.60                 -843.749      -895.156               
    57 r.61                  124.415      -876.771               
    58 r.62                 -895.156      -895.156               
    59 r.63                  73.0078      -876.771               
    60 r.64                  929.558       46.4276               
    61 r.65                 -929.558      -953.335               
    62 r.66                   838.49       37.7206               
    63 r.67                  -838.49      -962.082               
    64 r.68                   883.13        1.0722               
    65 r.69                  -883.13      -953.335               
    66 r.70                   800.77       4.65193               
    67 r.71                  -800.77      -962.082               
    68 r.72                  87.7227       1.91447               
    69 r.73                 -87.7227      -953.335               
    70 r.74                  845.789       7.29816               
    71 r.75                 -845.789      -962.082               
    72 r.76                  951.835       22.2777               
    73 r.77                 -951.835      -953.335               
    74 r.78                  962.082       18.7481               
    75 r.79                 -962.082      -962.082               
    76 r.80                 -70.4424      -928.152               
    77 r.81                 -914.192      -914.192               
    78 r.82                  787.084      -928.152               
    79 r.83                 -56.6657      -914.192               
    80 r.84                  85.8082       64.3648               
    81 r.85                 -85.8082      -953.335               
    82 r.86                  911.498       42.2709               
    83 r.87                 -911.498      -962.082               
    84 r.88                  46.4276       46.4276               
    85 r.89                 -46.4276      -998.928               
    86 r.90                  37.7206       37.7206               
    87 r.91                 -37.7206      -995.348               
    88 r.92                   115.37       46.6647               
    89 r.93                  -116.87      -998.928               
    90 r.94                   202.23       37.9176               
    91 r.95                  -199.23      -995.348               
    92 r.96                  204.593       1.91447               
    93 r.97                 -204.593      -998.928               
    94 r.98                  45.0188       7.29816               
    95 r.99                 -45.0188      -995.348               
    96 r.100                 68.7052       22.2777               
    97 r.101                -68.7052      -998.928               
    98 r.102                 161.313       18.7481               
    99 r.103                -161.313      -995.348               
   100 r.104                 46.4276      -928.152               
   101 r.105                -797.322      -914.192               
   102 r.106                -13.6861      -928.152               
   103 r.107                -857.436      -914.192               
   104 r.108                -797.322      -895.156               
   105 r.109                 170.842      -876.771               
   106 r.110                -857.436      -895.156               
   107 r.111                 110.728      -876.771               
   108 r.112                 841.835       46.4276               
   109 r.113                -841.835      -998.086               
   110 r.114                 992.702       37.7206               
   111 r.115                -992.702      -992.702               
   112 r.116                 910.777       46.6647               
   113 r.117                -912.277      -998.086               
   114 r.118                 157.211       37.9176               
   115 r.119                -154.211      -992.702               
   116 r.120                 795.407        1.0722               
   117 r.121                -795.407      -998.086               
   118 r.122                 954.981       4.65193               
   119 r.123                -954.981      -992.702               
   120 r.124                 864.113       22.2777               
   121 r.125                -864.113      -998.086               
   122 r.126                 116.294       18.7481               
   123 r.127                -116.294      -992.702               
   124 r.128                 841.835      -928.152               
   125 r.129                -1.91447      -914.192               
   126 r.130                -58.7049      -928.152               
   127 r.131                -902.454      -914.192               
   128 r.132                 998.086       64.3648               
   129 r.133                -998.086      -998.086               
   130 r.134                 65.7097       42.2709               
   131 r.135                -65.7097      -992.702               
   132 r.136                 977.722       46.4276               
   133 r.137                -977.722      -977.722               
   134 r.138                 876.408       37.7206               
   135 r.139                -876.408      -981.252               
   136 r.140                 46.6647       46.6647               
   137 r.141                -48.1647      -977.722               
   138 r.142                 40.9176       37.9176               
   139 r.143                -37.9176      -981.252               
   140 r.144                 931.295        1.0722               
   141 r.145                -931.295      -977.722               
   142 r.146                 838.687       4.65193               
   143 r.147                -838.687      -981.252               
   144 r.148                 135.887       1.91447               
   145 r.149                -135.887      -977.722               
   146 r.150                 883.706       7.29816               
   147 r.151                -883.706      -981.252               
   148 r.152                 977.722       44.8619               
   149 r.153                -977.722      -977.722               
   150 r.154                 981.252       31.8361               
   151 r.155                -981.252      -981.252               
   152 r.156                -866.027      -895.156               
   153 r.157                 102.137      -876.771               
   154 r.158                -18.7481      -895.156               
   155 r.159                 949.416      -876.771               
   156 r.160                       0      -928.152               
   157 r.161                -843.749      -914.192               
   158 r.162                -51.4067      -928.152               
   159 r.163                -895.156      -914.192               
   160 r.164                -70.4424      -928.152               
   161 r.165                -914.192      -914.192               
   162 r.166                 787.084      -928.152               
   163 r.167                -56.6657      -914.192               
   164 r.168                 46.4276      -928.152               
   165 r.169                -797.322      -914.192               
   166 r.170                -13.6861      -928.152               
   167 r.171                -857.436      -914.192               
   168 r.172                 841.835      -928.152               
   169 r.173                -1.91447      -914.192               
   170 r.174                -58.7049      -928.152               
   171 r.175                -902.454      -914.192               
   172 r.176                 22.2777       22.2777               
   173 r.177                -22.2777      -955.138               
   174 r.178                 18.7481       18.7481               
   175 r.179                -18.7481      -968.164               
   176 r.180                 156.251       64.3648               
   177 r.181                -156.251      -955.138               
   178 r.182                 968.164       42.2709               
   179 r.183                -968.164      -968.164               
   180 r.184                -843.749      -895.156               
   181 r.185                 124.415      -876.771               
   182 r.186                -895.156      -895.156               
   183 r.187                 73.0078      -876.771               
   184 r.188                 912.692       46.6647               
   185 r.189                -914.192      -935.635               
   186 r.190                 91.5018       37.9176               
   187 r.191                -88.5018      -957.729               
   188 r.192                -797.322      -895.156               
   189 r.193                 170.842      -876.771               
   190 r.194                -857.436      -895.156               
   191 r.195                 110.728      -876.771               
   192 r.196                 1.91447       1.91447               
   193 r.197                -1.91447      -935.635               
   194 r.198                  934.29       7.29816               
   195 r.199                 -934.29      -957.729               
   196 r.200                -866.027      -895.156               
   197 r.201                 102.137      -876.771               
   198 r.202                -18.7481      -895.156               
   199 r.203                 949.416      -876.771               
   200 r.204                 843.749       44.8619               
   201 r.205                -843.749      -935.635               
   202 r.206                 31.8361       31.8361               
   203 r.207                -31.8361      -957.729               

   No. Column name       Activity     Lower bound   Upper bound
------ ------------    ------------- ------------- -------------
     1 tt                    156.251             0               
     2 s_1_1        *              0             0             1 
     3 t_1_1                 156.251             0               
     4 s_1_7        *              0             0             1 
     5 s_2_1        *              1             0             1 
     6 t_2_1                 104.844             0               
     7 s_2_7        *              1             0             1 
     8 s_1_2        *              1             0             1 
     9 t_1_2                 85.8082             0               
    10 s_2_2        *              0             0             1 
    11 t_2_2                 943.334             0               
    12 s_1_3        *              0             0             1 
    13 t_1_3                 202.678             0               
    14 s_2_3        *              1             0             1 
    15 t_2_3                 142.564             0               
    16 s_1_4        *              0             0             1 
    17 t_1_4                 998.086             0               
    18 s_2_4        *              1             0             1 
    19 t_2_4                 97.5457             0               
    20 s_1_5        *              1             0             1 
    21 t_1_5                 133.973             0               
    22 s_1_8        *              1             0             1 
    23 s_2_5        *              0             0             1 
    24 t_2_5                 981.252             0               
    25 s_2_8        *              0             0             1 
    26 t_1_7                 156.251             0               
    27 t_2_7                       0             0               
    28 t_1_8                       0             0               
    29 t_2_8                 31.8361             0               
    30 u_1_1_2      *              0             0             1 
    31 u_2_1_2      *              1             0             1 
    32 u_1_1_3      *              1             0             1 
    33 u_2_1_3      *              1             0             1 
    34 u_1_1_4      *              1             0             1 
    35 u_2_1_4      *              0             0             1 
    36 u_1_1_5      *              0             0             1 
    37 u_2_1_5      *              1             0             1 
    38 u_1_2_1      *              1             0             1 
    39 u_2_2_1      *              0             0             1 
    40 u_1_2_3      *              1             0             1 
    41 u_2_2_3      *              0             0             1 
    42 u_1_2_4      *              1             0             1 
    43 u_2_2_4      *              0             0             1 
    44 u_1_2_5      *              1             0             1 
    45 u_2_2_5      *              1             0             1 
    46 u_1_2_8      *              0             0             1 
    47 u_2_2_8      *              0             0             1 
    48 u_1_3_1      *              0             0             1 
    49 u_2_3_1      *              0             0             1 
    50 u_1_3_2      *              0             0             1 
    51 u_2_3_2      *              1             0             1 
    52 u_1_3_4      *              1             0             1 
    53 u_2_3_4      *              0             0             1 
    54 u_1_3_5      *              0             0             1 
    55 u_2_3_5      *              1             0             1 
    56 u_1_4_1      *              0             0             1 
    57 u_2_4_1      *              1             0             1 
    58 u_1_4_2      *              0             0             1 
    59 u_2_4_2      *              1             0             1 
    60 u_1_4_3      *              0             0             1 
    61 u_2_4_3      *              1             0             1 
    62 u_1_4_5      *              0             0             1 
    63 u_2_4_5      *              1             0             1 
    64 u_1_4_8      *              0             0             1 
    65 u_2_4_8      *              0             0             1 
    66 u_1_5_1      *              1             0             1 
    67 u_2_5_1      *              0             0             1 
    68 u_1_5_2      *              0             0             1 
    69 u_2_5_2      *              0             0             1 
    70 u_1_5_3      *              1             0             1 
    71 u_2_5_3      *              0             0             1 
    72 u_1_5_4      *              1             0             1 
    73 u_2_5_4      *              0             0             1 
    74 u_1_5_7      *              1             0             1 
    75 u_2_5_7      *              0             0             1 
    76 u_1_7_5      *              0             0             1 
    77 u_2_7_5      *              1             0             1 
    78 u_1_7_8      *              0             0             1 
    79 u_2_7_8      *              1             0             1 
    80 u_1_8_2      *              1             0             1 
    81 u_2_8_2      *              1             0             1 
    82 u_1_8_4      *              1             0             1 
    83 u_2_8_4      *              1             0             1 
    84 u_1_8_7      *              1             0             1 
    85 u_2_8_7      *              0             0             1 

Integer feasibility conditions:

KKT.PE: max.abs.err = 2.27e-13 on row 6
        max.rel.err = 1.10e-16 on row 142
        High quality

KKT.PB: max.abs.err = 7.11e-15 on row 174
        max.rel.err = 3.60e-16 on row 174
        High quality

End of output
